c This is UnifRandomKSATGenerator
c uniform random 3-SAT generated instance with: 
c clause length: 3 
c number variables: 10 
c number clauses: 43 
c clause to variable ratio: 4.27 
c random number generator name: SHA1PRNG 
c random number generator provider: SUN 
c random number generator seed: 7589389804767699362 
p cnf 10 43
-3 2 -4 0
-1 10 7 0
-10 5 -7 0
1 10 -6 0
1 9 7 0
-9 -5 7 0
8 -9 4 0
8 10 -7 0
-2 -10 4 0
9 4 -7 0
1 -4 -7 0
-10 4 -6 0
-4 3 -7 0
-2 -4 3 0
-2 10 6 0
-2 -6 7 0
-6 7 -8 0
-9 -10 -5 0
-2 -5 -8 0
-1 5 -8 0
3 -6 7 0
-1 5 6 0
-2 3 6 0
1 9 -7 0
9 -4 3 0
-10 -5 7 0
-10 9 -5 0
-1 -2 6 0
9 -3 -5 0
-9 2 3 0
4 7 -8 0
-1 6 7 0
-10 4 -8 0
-2 9 -7 0
8 10 2 0
-2 10 4 0
-2 10 -7 0
10 5 6 0
-9 3 6 0
-3 -7 -8 0
-10 -3 4 0
-1 -9 5 0
-10 -3 5 0
